137
3
20
22
39
43
61
67
69
105
132
133
134
141
150
154
167
191
195
207
215
226
251
253
260
272
276
305
321
332
337
341
354
356
387
394
400
401
463
468
486
504
517
550
566
575
582
584
590
598
604
612
652
667
674
676
679
680
705
723
733
734
745
757
764
780
818
831
842
848
851
852
863
869
873
876
882
938
952
953
981
994
997
1001
1020
1036
1040
1046
1052
1071
1077
1101
1130
1131
1144
1149
1162
1180
1181
1186
1188
1196
1203
1264
1273
1275
1284
1296
1297
1310
1315
1324
1326
1327
1332
1342
1344
1350
1361
1362
1371
1390
1406
1409
1410
1420
1423
1427
1451
1457
1487
1494
1502
1521
1531
1564
1573
1599
27
3
21
42
53
68
85
88
102
103
109
132
138
167
174
187
204
211
212
240
241
248
257
266
296
342
356
358
